49
9
94
4 4 4 28 28 28 28 4 4 4 28 28 28 28 4 4 4 28 4 4 3 3 3 16 16 16 3 3 3 3 16 16 16 3 3 3 3 16 16 16 3 3 3 3 3 3 3 3 3 
0 0 0
0 1 28
0 2 56
0 3 85
0 4 114
0 5 142
0 6 170
0 7 34
0 8 62
0 9 90
0 10 119
0 11 148
0 12 176
0 13 204
0 14 68
0 15 96
0 16 124
0 17 153
0 18 182
0 19 210
0 20 238
0 21 103
0 22 131
0 23 159
0 24 188
0 25 217
0 26 245
0 27 273
0 28 138
0 29 166
0 30 194
0 31 223
0 32 252
0 33 280
0 34 308
0 35 172
0 36 200
0 37 228
0 38 257
0 39 286
0 40 314
0 41 342
0 42 206
0 43 234
0 44 262
0 45 291
0 46 320
0 47 348
0 48 376
1 0 28
1 1 0
1 2 28
1 3 57
1 4 86
1 5 114
1 6 142
1 7 62
1 8 34
1 9 62
1 10 91
1 11 120
1 12 148
1 13 176
1 14 96
1 15 68
1 16 96
1 17 125
1 18 154
1 19 182
1 20 210
1 21 131
1 22 103
1 23 131
1 24 160
1 25 189
1 26 217
1 27 245
1 28 166
1 29 138
1 30 166
1 31 195
1 32 224
1 33 252
1 34 280
1 35 200
1 36 172
1 37 200
1 38 229
1 39 258
1 40 286
1 41 314
1 42 234
1 43 206
1 44 234
1 45 263
1 46 292
1 47 320
1 48 348
2 0 56
2 1 28
2 2 0
2 3 29
2 4 58
2 5 86
2 6 114
2 7 90
2 8 62
2 9 34
2 10 63
2 11 92
2 12 120
2 13 148
2 14 124
2 15 96
2 16 68
2 17 97
2 18 126
2 19 154
2 20 182
2 21 159
2 22 131
2 23 103
2 24 132
2 25 161
2 26 189
2 27 217
2 28 194
2 29 166
2 30 138
2 31 167
2 32 196
2 33 224
2 34 252
2 35 228
2 36 200
2 37 172
2 38 201
2 39 230
2 40 258
2 41 286
2 42 262
2 43 234
2 44 206
2 45 235
2 46 264
2 47 292
2 48 320
3 0 85
3 1 57
3 2 29
3 3 0
3 4 29
3 5 57
3 6 85
3 7 119
3 8 91
3 9 63
3 10 34
3 11 63
3 12 91
3 13 119
3 14 153
3 15 125
3 16 97
3 17 68
3 18 97
3 19 125
3 20 153
3 21 188
3 22 160
3 23 132
3 24 103
3 25 132
3 26 160
3 27 188
3 28 223
3 29 195
3 30 167
3 31 138
3 32 167
3 33 195
3 34 223
3 35 257
3 36 229
3 37 201
3 38 172
3 39 201
3 40 229
3 41 257
3 42 291
3 43 263
3 44 235
3 45 206
3 46 235
3 47 263
3 48 291
4 0 114
4 1 86
4 2 58
4 3 29
4 4 0
4 5 28
4 6 56
4 7 148
4 8 120
4 9 92
4 10 63
4 11 34
4 12 62
4 13 90
4 14 182
4 15 154
4 16 126
4 17 97
4 18 68
4 19 96
4 20 124
4 21 217
4 22 189
4 23 161
4 24 132
4 25 103
4 26 131
4 27 159
4 28 252
4 29 224
4 30 196
4 31 167
4 32 138
4 33 166
4 34 194
4 35 286
4 36 258
4 37 230
4 38 201
4 39 172
4 40 200
4 41 228
4 42 320
4 43 292
4 44 264
4 45 235
4 46 206
4 47 234
4 48 262
5 0 142
5 1 114
5 2 86
5 3 57
5 4 28
5 5 0
5 6 28
5 7 176
5 8 148
5 9 120
5 10 91
5 11 62
5 12 34
5 13 62
5 14 210
5 15 182
5 16 154
5 17 125
5 18 96
5 19 68
5 20 96
5 21 245
5 22 217
5 23 189
5 24 160
5 25 131
5 26 103
5 27 131
5 28 280
5 29 252
5 30 224
5 31 195
5 32 166
5 33 138
5 34 166
5 35 314
5 36 286
5 37 258
5 38 229
5 39 200
5 40 172
5 41 200
5 42 348
5 43 320
5 44 292
5 45 263
5 46 234
5 47 206
5 48 234
6 0 170
6 1 142
6 2 114
6 3 85
6 4 56
6 5 28
6 6 0
6 7 204
6 8 176
6 9 148
6 10 119
6 11 90
6 12 62
6 13 34
6 14 238
6 15 210
6 16 182
6 17 153
6 18 124
6 19 96
6 20 68
6 21 273
6 22 245
6 23 217
6 24 188
6 25 159
6 26 131
6 27 103
6 28 308
6 29 280
6 30 252
6 31 223
6 32 194
6 33 166
6 34 138
6 35 342
6 36 314
6 37 286
6 38 257
6 39 228
6 40 200
6 41 172
6 42 376
6 43 348
6 44 320
6 45 291
6 46 262
6 47 234
6 48 206
7 0 34
7 1 62
7 2 90
7 3 119
7 4 148
7 5 176
7 6 204
7 7 0
7 8 28
7 9 56
7 10 85
7 11 114
7 12 142
7 13 170
7 14 34
7 15 62
7 16 90
7 17 119
7 18 148
7 19 176
7 20 204
7 21 69
7 22 97
7 23 125
7 24 154
7 25 183
7 26 211
7 27 239
7 28 104
7 29 132
7 30 160
7 31 189
7 32 218
7 33 246
7 34 274
7 35 138
7 36 166
7 37 194
7 38 223
7 39 252
7 40 280
7 41 308
7 42 172
7 43 200
7 44 228
7 45 257
7 46 286
7 47 314
7 48 342
8 0 62
8 1 34
8 2 62
8 3 91
8 4 120
8 5 148
8 6 176
8 7 28
8 8 0
8 9 28
8 10 57
8 11 86
8 12 114
8 13 142
8 14 62
8 15 34
8 16 62
8 17 91
8 18 120
8 19 148
8 20 176
8 21 97
8 22 69
8 23 97
8 24 126
8 25 155
8 26 183
8 27 211
8 28 132
8 29 104
8 30 132
8 31 161
8 32 190
8 33 218
8 34 246
8 35 166
8 36 138
8 37 166
8 38 195
8 39 224
8 40 252
8 41 280
8 42 200
8 43 172
8 44 200
8 45 229
8 46 258
8 47 286
8 48 314
9 0 90
9 1 62
9 2 34
9 3 63
9 4 92
9 5 120
9 6 148
9 7 56
9 8 28
9 9 0
9 10 29
9 11 58
9 12 86
9 13 114
9 14 90
9 15 62
9 16 34
9 17 63
9 18 92
9 19 120
9 20 148
9 21 125
9 22 97
9 23 69
9 24 98
9 25 127
9 26 155
9 27 183
9 28 160
9 29 132
9 30 104
9 31 133
9 32 162
9 33 190
9 34 218
9 35 194
9 36 166
9 37 138
9 38 167
9 39 196
9 40 224
9 41 252
9 42 228
9 43 200
9 44 172
9 45 201
9 46 230
9 47 258
9 48 286
10 0 119
10 1 91
10 2 63
10 3 34
10 4 63
10 5 91
10 6 119
10 7 85
10 8 57
10 9 29
10 10 0
10 11 29
10 12 57
10 13 85
10 14 119
10 15 91
10 16 63
10 17 34
10 18 63
10 19 91
10 20 119
10 21 154
10 22 126
10 23 98
10 24 69
10 25 98
10 26 126
10 27 154
10 28 189
10 29 161
10 30 133
10 31 104
10 32 133
10 33 161
10 34 189
10 35 223
10 36 195
10 37 167
10 38 138
10 39 167
10 40 195
10 41 223
10 42 257
10 43 229
10 44 201
10 45 172
10 46 201
10 47 229
10 48 257
11 0 148
11 1 120
11 2 92
11 3 63
11 4 34
11 5 62
11 6 90
11 7 114
11 8 86
11 9 58
11 10 29
11 11 0
11 12 28
11 13 56
11 14 148
11 15 120
11 16 92
11 17 63
11 18 34
11 19 62
11 20 90
11 21 183
11 22 155
11 23 127
11 24 98
11 25 69
11 26 97
11 27 125
11 28 218
11 29 190
11 30 162
11 31 133
11 32 104
11 33 132
11 34 160
11 35 252
11 36 224
11 37 196
11 38 167
11 39 138
11 40 166
11 41 194
11 42 286
11 43 258
11 44 230
11 45 201
11 46 172
11 47 200
11 48 228
12 0 176
12 1 148
12 2 120
12 3 91
12 4 62
12 5 34
12 6 62
12 7 142
12 8 114
12 9 86
12 10 57
12 11 28
12 12 0
12 13 28
12 14 176
12 15 148
12 16 120
12 17 91
12 18 62
12 19 34
12 20 62
12 21 211
12 22 183
12 23 155
12 24 126
12 25 97
12 26 69
12 27 97
12 28 246
12 29 218
12 30 190
12 31 161
12 32 132
12 33 104
12 34 132
12 35 280
12 36 252
12 37 224
12 38 195
12 39 166
12 40 138
12 41 166
12 42 314
12 43 286
12 44 258
12 45 229
12 46 200
12 47 172
12 48 200
13 0 204
13 1 176
13 2 148
13 3 119
13 4 90
13 5 62
13 6 34
13 7 170
13 8 142
13 9 114
13 10 85
13 11 56
13 12 28
13 13 0
13 14 204
13 15 176
13 16 148
13 17 119
13 18 90
13 19 62
13 20 34
13 21 239
13 22 211
13 23 183
13 24 154
13 25 125
13 26 97
13 27 69
13 28 274
13 29 246
13 30 218
13 31 189
13 32 160
13 33 132
13 34 104
13 35 308
13 36 280
13 37 252
13 38 223
13 39 194
13 40 166
13 41 138
13 42 342
13 43 314
13 44 286
13 45 257
13 46 228
13 47 200
13 48 172
14 0 68
14 1 96
14 2 124
14 3 153
14 4 182
14 5 210
14 6 238
14 7 34
14 8 62
14 9 90
14 10 119
14 11 148
14 12 176
14 13 204
14 14 0
14 15 28
14 16 56
14 17 85
14 18 114
14 19 142
14 20 170
14 21 35
14 22 63
14 23 91
14 24 120
14 25 149
14 26 177
14 27 205
14 28 70
14 29 98
14 30 126
14 31 155
14 32 184
14 33 212
14 34 240
14 35 104
14 36 132
14 37 160
14 38 189
14 39 218
14 40 246
14 41 274
14 42 138
14 43 166
14 44 194
14 45 223
14 46 252
14 47 280
14 48 308
15 0 96
15 1 68
15 2 96
15 3 125
15 4 154
15 5 182
15 6 210
15 7 62
15 8 34
15 9 62
15 10 91
15 11 120
15 12 148
15 13 176
15 14 28
15 15 0
15 16 28
15 17 57
15 18 86
15 19 114
15 20 142
15 21 63
15 22 35
15 23 63
15 24 92
15 25 121
15 26 149
15 27 177
15 28 98
15 29 70
15 30 98
15 31 127
15 32 156
15 33 184
15 34 212
15 35 132
15 36 104
15 37 132
15 38 161
15 39 190
15 40 218
15 41 246
15 42 166
15 43 138
15 44 166
15 45 195
15 46 224
15 47 252
15 48 280
16 0 124
16 1 96
16 2 68
16 3 97
16 4 126
16 5 154
16 6 182
16 7 90
16 8 62
16 9 34
16 10 63
16 11 92
16 12 120
16 13 148
16 14 56
16 15 28
16 16 0
16 17 29
16 18 58
16 19 86
16 20 114
16 21 91
16 22 63
16 23 35
16 24 64
16 25 93
16 26 121
16 27 149
16 28 126
16 29 98
16 30 70
16 31 99
16 32 128
16 33 156
16 34 184
16 35 160
16 36 132
16 37 104
16 38 133
16 39 162
16 40 190
16 41 218
16 42 194
16 43 166
16 44 138
16 45 167
16 46 196
16 47 224
16 48 252
17 0 153
17 1 125
17 2 97
17 3 68
17 4 97
17 5 125
17 6 153
17 7 119
17 8 91
17 9 63
17 10 34
17 11 63
17 12 91
17 13 119
17 14 85
17 15 57
17 16 29
17 17 0
17 18 29
17 19 57
17 20 85
17 21 120
17 22 92
17 23 64
17 24 35
17 25 64
17 26 92
17 27 120
17 28 155
17 29 127
17 30 99
17 31 70
17 32 99
17 33 127
17 34 155
17 35 189
17 36 161
17 37 133
17 38 104
17 39 133
17 40 161
17 41 189
17 42 223
17 43 195
17 44 167
17 45 138
17 46 167
17 47 195
17 48 223
18 0 182
18 1 154
18 2 126
18 3 97
18 4 68
18 5 96
18 6 124
18 7 148
18 8 120
18 9 92
18 10 63
18 11 34
18 12 62
18 13 90
18 14 114
18 15 86
18 16 58
18 17 29
18 18 0
18 19 28
18 20 56
18 21 149
18 22 121
18 23 93
18 24 64
18 25 35
18 26 63
18 27 91
18 28 184
18 29 156
18 30 128
18 31 99
18 32 70
18 33 98
18 34 126
18 35 218
18 36 190
18 37 162
18 38 133
18 39 104
18 40 132
18 41 160
18 42 252
18 43 224
18 44 196
18 45 167
18 46 138
18 47 166
18 48 194
19 0 210
19 1 182
19 2 154
19 3 125
19 4 96
19 5 68
19 6 96
19 7 176
19 8 148
19 9 120
19 10 91
19 11 62
19 12 34
19 13 62
19 14 142
19 15 114
19 16 86
19 17 57
19 18 28
19 19 0
19 20 28
19 21 177
19 22 149
19 23 121
19 24 92
19 25 63
19 26 35
19 27 63
19 28 212
19 29 184
19 30 156
19 31 127
19 32 98
19 33 70
19 34 98
19 35 246
19 36 218
19 37 190
19 38 161
19 39 132
19 40 104
19 41 132
19 42 280
19 43 252
19 44 224
19 45 195
19 46 166
19 47 138
19 48 166
20 0 238
20 1 210
20 2 182
20 3 153
20 4 124
20 5 96
20 6 68
20 7 204
20 8 176
20 9 148
20 10 119
20 11 90
20 12 62
20 13 34
20 14 170
20 15 142
20 16 114
20 17 85
20 18 56
20 19 28
20 20 0
20 21 205
20 22 177
20 23 149
20 24 120
20 25 91
20 26 63
20 27 35
20 28 240
20 29 212
20 30 184
20 31 155
20 32 126
20 33 98
20 34 70
20 35 274
20 36 246
20 37 218
20 38 189
20 39 160
20 40 132
20 41 104
20 42 308
20 43 280
20 44 252
20 45 223
20 46 194
20 47 166
20 48 138
21 0 103
21 1 131
21 2 159
21 3 188
21 4 217
21 5 245
21 6 273
21 7 69
21 8 97
21 9 125
21 10 154
21 11 183
21 12 211
21 13 239
21 14 35
21 15 63
21 16 91
21 17 120
21 18 149
21 19 177
21 20 205
21 21 0
21 22 28
21 23 56
21 24 85
21 25 114
21 26 142
21 27 170
21 28 35
21 29 63
21 30 91
21 31 120
21 32 149
21 33 177
21 34 205
21 35 69
21 36 97
21 37 125
21 38 154
21 39 183
21 40 211
21 41 239
21 42 103
21 43 131
21 44 159
21 45 188
21 46 217
21 47 245
21 48 273
22 0 131
22 1 103
22 2 131
22 3 160
22 4 189
22 5 217
22 6 245
22 7 97
22 8 69
22 9 97
22 10 126
22 11 155
22 12 183
22 13 211
22 14 63
22 15 35
22 16 63
22 17 92
22 18 121
22 19 149
22 20 177
22 21 28
22 22 0
22 23 28
22 24 57
22 25 86
22 26 114
22 27 142
22 28 63
22 29 35
22 30 63
22 31 92
22 32 121
22 33 149
22 34 177
22 35 97
22 36 69
22 37 97
22 38 126
22 39 155
22 40 183
22 41 211
22 42 131
22 43 103
22 44 131
22 45 160
22 46 189
22 47 217
22 48 245
23 0 159
23 1 131
23 2 103
23 3 132
23 4 161
23 5 189
23 6 217
23 7 125
23 8 97
23 9 69
23 10 98
23 11 127
23 12 155
23 13 183
23 14 91
23 15 63
23 16 35
23 17 64
23 18 93
23 19 121
23 20 149
23 21 56
23 22 28
23 23 0
23 24 29
23 25 58
23 26 86
23 27 114
23 28 91
23 29 63
23 30 35
23 31 64
23 32 93
23 33 121
23 34 149
23 35 125
23 36 97
23 37 69
23 38 98
23 39 127
23 40 155
23 41 183
23 42 159
23 43 131
23 44 103
23 45 132
23 46 161
23 47 189
23 48 217
24 0 188
24 1 160
24 2 132
24 3 103
24 4 132
24 5 160
24 6 188
24 7 154
24 8 126
24 9 98
24 10 69
24 11 98
24 12 126
24 13 154
24 14 120
24 15 92
24 16 64
24 17 35
24 18 64
24 19 92
24 20 120
24 21 85
24 22 57
24 23 29
24 24 0
24 25 29
24 26 57
24 27 85
24 28 120
24 29 92
24 30 64
24 31 35
24 32 64
24 33 92
24 34 120
24 35 154
24 36 126
24 37 98
24 38 69
24 39 98
24 40 126
24 41 154
24 42 188
24 43 160
24 44 132
24 45 103
24 46 132
24 47 160
24 48 188
25 0 217
25 1 189
25 2 161
25 3 132
25 4 103
25 5 131
25 6 159
25 7 183
25 8 155
25 9 127
25 10 98
25 11 69
25 12 97
25 13 125
25 14 149
25 15 121
25 16 93
25 17 64
25 18 35
25 19 63
25 20 91
25 21 114
25 22 86
25 23 58
25 24 29
25 25 0
25 26 28
25 27 56
25 28 149
25 29 121
25 30 93
25 31 64
25 32 35
25 33 63
25 34 91
25 35 183
25 36 155
25 37 127
25 38 98
25 39 69
25 40 97
25 41 125
25 42 217
25 43 189
25 44 161
25 45 132
25 46 103
25 47 131
25 48 159
26 0 245
26 1 217
26 2 189
26 3 160
26 4 131
26 5 103
26 6 131
26 7 211
26 8 183
26 9 155
26 10 126
26 11 97
26 12 69
26 13 97
26 14 177
26 15 149
26 16 121
26 17 92
26 18 63
26 19 35
26 20 63
26 21 142
26 22 114
26 23 86
26 24 57
26 25 28
26 26 0
26 27 28
26 28 177
26 29 149
26 30 121
26 31 92
26 32 63
26 33 35
26 34 63
26 35 211
26 36 183
26 37 155
26 38 126
26 39 97
26 40 69
26 41 97
26 42 245
26 43 217
26 44 189
26 45 160
26 46 131
26 47 103
26 48 131
27 0 273
27 1 245
27 2 217
27 3 188
27 4 159
27 5 131
27 6 103
27 7 239
27 8 211
27 9 183
27 10 154
27 11 125
27 12 97
27 13 69
27 14 205
27 15 177
27 16 149
27 17 120
27 18 91
27 19 63
27 20 35
27 21 170
27 22 142
27 23 114
27 24 85
27 25 56
27 26 28
27 27 0
27 28 205
27 29 177
27 30 149
27 31 120
27 32 91
27 33 63
27 34 35
27 35 239
27 36 211
27 37 183
27 38 154
27 39 125
27 40 97
27 41 69
27 42 273
27 43 245
27 44 217
27 45 188
27 46 159
27 47 131
27 48 103
28 0 138
28 1 166
28 2 194
28 3 223
28 4 252
28 5 280
28 6 308
28 7 104
28 8 132
28 9 160
28 10 189
28 11 218
28 12 246
28 13 274
28 14 70
28 15 98
28 16 126
28 17 155
28 18 184
28 19 212
28 20 240
28 21 35
28 22 63
28 23 91
28 24 120
28 25 149
28 26 177
28 27 205
28 28 0
28 29 28
28 30 56
28 31 85
28 32 114
28 33 142
28 34 170
28 35 34
28 36 62
28 37 90
28 38 119
28 39 148
28 40 176
28 41 204
28 42 68
28 43 96
28 44 124
28 45 153
28 46 182
28 47 210
28 48 238
29 0 166
29 1 138
29 2 166
29 3 195
29 4 224
29 5 252
29 6 280
29 7 132
29 8 104
29 9 132
29 10 161
29 11 190
29 12 218
29 13 246
29 14 98
29 15 70
29 16 98
29 17 127
29 18 156
29 19 184
29 20 212
29 21 63
29 22 35
29 23 63
29 24 92
29 25 121
29 26 149
29 27 177
29 28 28
29 29 0
29 30 28
29 31 57
29 32 86
29 33 114
29 34 142
29 35 62
29 36 34
29 37 62
29 38 91
29 39 120
29 40 148
29 41 176
29 42 96
29 43 68
29 44 96
29 45 125
29 46 154
29 47 182
29 48 210
30 0 194
30 1 166
30 2 138
30 3 167
30 4 196
30 5 224
30 6 252
30 7 160
30 8 132
30 9 104
30 10 133
30 11 162
30 12 190
30 13 218
30 14 126
30 15 98
30 16 70
30 17 99
30 18 128
30 19 156
30 20 184
30 21 91
30 22 63
30 23 35
30 24 64
30 25 93
30 26 121
30 27 149
30 28 56
30 29 28
30 30 0
30 31 29
30 32 58
30 33 86
30 34 114
30 35 90
30 36 62
30 37 34
30 38 63
30 39 92
30 40 120
30 41 148
30 42 124
30 43 96
30 44 68
30 45 97
30 46 126
30 47 154
30 48 182
31 0 223
31 1 195
31 2 167
31 3 138
31 4 167
31 5 195
31 6 223
31 7 189
31 8 161
31 9 133
31 10 104
31 11 133
31 12 161
31 13 189
31 14 155
31 15 127
31 16 99
31 17 70
31 18 99
31 19 127
31 20 155
31 21 120
31 22 92
31 23 64
31 24 35
31 25 64
31 26 92
31 27 120
31 28 85
31 29 57
31 30 29
31 31 0
31 32 29
31 33 57
31 34 85
31 35 119
31 36 91
31 37 63
31 38 34
31 39 63
31 40 91
31 41 119
31 42 153
31 43 125
31 44 97
31 45 68
31 46 97
31 47 125
31 48 153
32 0 252
32 1 224
32 2 196
32 3 167
32 4 138
32 5 166
32 6 194
32 7 218
32 8 190
32 9 162
32 10 133
32 11 104
32 12 132
32 13 160
32 14 184
32 15 156
32 16 128
32 17 99
32 18 70
32 19 98
32 20 126
32 21 149
32 22 121
32 23 93
32 24 64
32 25 35
32 26 63
32 27 91
32 28 114
32 29 86
32 30 58
32 31 29
32 32 0
32 33 28
32 34 56
32 35 148
32 36 120
32 37 92
32 38 63
32 39 34
32 40 62
32 41 90
32 42 182
32 43 154
32 44 126
32 45 97
32 46 68
32 47 96
32 48 124
33 0 280
33 1 252
33 2 224
33 3 195
33 4 166
33 5 138
33 6 166
33 7 246
33 8 218
33 9 190
33 10 161
33 11 132
33 12 104
33 13 132
33 14 212
33 15 184
33 16 156
33 17 127
33 18 98
33 19 70
33 20 98
33 21 177
33 22 149
33 23 121
33 24 92
33 25 63
33 26 35
33 27 63
33 28 142
33 29 114
33 30 86
33 31 57
33 32 28
33 33 0
33 34 28
33 35 176
33 36 148
33 37 120
33 38 91
33 39 62
33 40 34
33 41 62
33 42 210
33 43 182
33 44 154
33 45 125
33 46 96
33 47 68
33 48 96
34 0 308
34 1 280
34 2 252
34 3 223
34 4 194
34 5 166
34 6 138
34 7 274
34 8 246
34 9 218
34 10 189
34 11 160
34 12 132
34 13 104
34 14 240
34 15 212
34 16 184
34 17 155
34 18 126
34 19 98
34 20 70
34 21 205
34 22 177
34 23 149
34 24 120
34 25 91
34 26 63
34 27 35
34 28 170
34 29 142
34 30 114
34 31 85
34 32 56
34 33 28
34 34 0
34 35 204
34 36 176
34 37 148
34 38 119
34 39 90
34 40 62
34 41 34
34 42 238
34 43 210
34 44 182
34 45 153
34 46 124
34 47 96
34 48 68
35 0 172
35 1 200
35 2 228
35 3 257
35 4 286
35 5 314
35 6 342
35 7 138
35 8 166
35 9 194
35 10 223
35 11 252
35 12 280
35 13 308
35 14 104
35 15 132
35 16 160
35 17 189
35 18 218
35 19 246
35 20 274
35 21 69
35 22 97
35 23 125
35 24 154
35 25 183
35 26 211
35 27 239
35 28 34
35 29 62
35 30 90
35 31 119
35 32 148
35 33 176
35 34 204
35 35 0
35 36 28
35 37 56
35 38 85
35 39 114
35 40 142
35 41 170
35 42 34
35 43 62
35 44 90
35 45 119
35 46 148
35 47 176
35 48 204
36 0 200
36 1 172
36 2 200
36 3 229
36 4 258
36 5 286
36 6 314
36 7 166
36 8 138
36 9 166
36 10 195
36 11 224
36 12 252
36 13 280
36 14 132
36 15 104
36 16 132
36 17 161
36 18 190
36 19 218
36 20 246
36 21 97
36 22 69
36 23 97
36 24 126
36 25 155
36 26 183
36 27 211
36 28 62
36 29 34
36 30 62
36 31 91
36 32 120
36 33 148
36 34 176
36 35 28
36 36 0
36 37 28
36 38 57
36 39 86
36 40 114
36 41 142
36 42 62
36 43 34
36 44 62
36 45 91
36 46 120
36 47 148
36 48 176
37 0 228
37 1 200
37 2 172
37 3 201
37 4 230
37 5 258
37 6 286
37 7 194
37 8 166
37 9 138
37 10 167
37 11 196
37 12 224
37 13 252
37 14 160
37 15 132
37 16 104
37 17 133
37 18 162
37 19 190
37 20 218
37 21 125
37 22 97
37 23 69
37 24 98
37 25 127
37 26 155
37 27 183
37 28 90
37 29 62
37 30 34
37 31 63
37 32 92
37 33 120
37 34 148
37 35 56
37 36 28
37 37 0
37 38 29
37 39 58
37 40 86
37 41 114
37 42 90
37 43 62
37 44 34
37 45 63
37 46 92
37 47 120
37 48 148
38 0 257
38 1 229
38 2 201
38 3 172
38 4 201
38 5 229
38 6 257
38 7 223
38 8 195
38 9 167
38 10 138
38 11 167
38 12 195
38 13 223
38 14 189
38 15 161
38 16 133
38 17 104
38 18 133
38 19 161
38 20 189
38 21 154
38 22 126
38 23 98
38 24 69
38 25 98
38 26 126
38 27 154
38 28 119
38 29 91
38 30 63
38 31 34
38 32 63
38 33 91
38 34 119
38 35 85
38 36 57
38 37 29
38 38 0
38 39 29
38 40 57
38 41 85
38 42 119
38 43 91
38 44 63
38 45 34
38 46 63
38 47 91
38 48 119
39 0 286
39 1 258
39 2 230
39 3 201
39 4 172
39 5 200
39 6 228
39 7 252
39 8 224
39 9 196
39 10 167
39 11 138
39 12 166
39 13 194
39 14 218
39 15 190
39 16 162
39 17 133
39 18 104
39 19 132
39 20 160
39 21 183
39 22 155
39 23 127
39 24 98
39 25 69
39 26 97
39 27 125
39 28 148
39 29 120
39 30 92
39 31 63
39 32 34
39 33 62
39 34 90
39 35 114
39 36 86
39 37 58
39 38 29
39 39 0
39 40 28
39 41 56
39 42 148
39 43 120
39 44 92
39 45 63
39 46 34
39 47 62
39 48 90
40 0 314
40 1 286
40 2 258
40 3 229
40 4 200
40 5 172
40 6 200
40 7 280
40 8 252
40 9 224
40 10 195
40 11 166
40 12 138
40 13 166
40 14 246
40 15 218
40 16 190
40 17 161
40 18 132
40 19 104
40 20 132
40 21 211
40 22 183
40 23 155
40 24 126
40 25 97
40 26 69
40 27 97
40 28 176
40 29 148
40 30 120
40 31 91
40 32 62
40 33 34
40 34 62
40 35 142
40 36 114
40 37 86
40 38 57
40 39 28
40 40 0
40 41 28
40 42 176
40 43 148
40 44 120
40 45 91
40 46 62
40 47 34
40 48 62
41 0 342
41 1 314
41 2 286
41 3 257
41 4 228
41 5 200
41 6 172
41 7 308
41 8 280
41 9 252
41 10 223
41 11 194
41 12 166
41 13 138
41 14 274
41 15 246
41 16 218
41 17 189
41 18 160
41 19 132
41 20 104
41 21 239
41 22 211
41 23 183
41 24 154
41 25 125
41 26 97
41 27 69
41 28 204
41 29 176
41 30 148
41 31 119
41 32 90
41 33 62
41 34 34
41 35 170
41 36 142
41 37 114
41 38 85
41 39 56
41 40 28
41 41 0
41 42 204
41 43 176
41 44 148
41 45 119
41 46 90
41 47 62
41 48 34
42 0 206
42 1 234
42 2 262
42 3 291
42 4 320
42 5 348
42 6 376
42 7 172
42 8 200
42 9 228
42 10 257
42 11 286
42 12 314
42 13 342
42 14 138
42 15 166
42 16 194
42 17 223
42 18 252
42 19 280
42 20 308
42 21 103
42 22 131
42 23 159
42 24 188
42 25 217
42 26 245
42 27 273
42 28 68
42 29 96
42 30 124
42 31 153
42 32 182
42 33 210
42 34 238
42 35 34
42 36 62
42 37 90
42 38 119
42 39 148
42 40 176
42 41 204
42 42 0
42 43 28
42 44 56
42 45 85
42 46 114
42 47 142
42 48 170
43 0 234
43 1 206
43 2 234
43 3 263
43 4 292
43 5 320
43 6 348
43 7 200
43 8 172
43 9 200
43 10 229
43 11 258
43 12 286
43 13 314
43 14 166
43 15 138
43 16 166
43 17 195
43 18 224
43 19 252
43 20 280
43 21 131
43 22 103
43 23 131
43 24 160
43 25 189
43 26 217
43 27 245
43 28 96
43 29 68
43 30 96
43 31 125
43 32 154
43 33 182
43 34 210
43 35 62
43 36 34
43 37 62
43 38 91
43 39 120
43 40 148
43 41 176
43 42 28
43 43 0
43 44 28
43 45 57
43 46 86
43 47 114
43 48 142
44 0 262
44 1 234
44 2 206
44 3 235
44 4 264
44 5 292
44 6 320
44 7 228
44 8 200
44 9 172
44 10 201
44 11 230
44 12 258
44 13 286
44 14 194
44 15 166
44 16 138
44 17 167
44 18 196
44 19 224
44 20 252
44 21 159
44 22 131
44 23 103
44 24 132
44 25 161
44 26 189
44 27 217
44 28 124
44 29 96
44 30 68
44 31 97
44 32 126
44 33 154
44 34 182
44 35 90
44 36 62
44 37 34
44 38 63
44 39 92
44 40 120
44 41 148
44 42 56
44 43 28
44 44 0
44 45 29
44 46 58
44 47 86
44 48 114
45 0 291
45 1 263
45 2 235
45 3 206
45 4 235
45 5 263
45 6 291
45 7 257
45 8 229
45 9 201
45 10 172
45 11 201
45 12 229
45 13 257
45 14 223
45 15 195
45 16 167
45 17 138
45 18 167
45 19 195
45 20 223
45 21 188
45 22 160
45 23 132
45 24 103
45 25 132
45 26 160
45 27 188
45 28 153
45 29 125
45 30 97
45 31 68
45 32 97
45 33 125
45 34 153
45 35 119
45 36 91
45 37 63
45 38 34
45 39 63
45 40 91
45 41 119
45 42 85
45 43 57
45 44 29
45 45 0
45 46 29
45 47 57
45 48 85
46 0 320
46 1 292
46 2 264
46 3 235
46 4 206
46 5 234
46 6 262
46 7 286
46 8 258
46 9 230
46 10 201
46 11 172
46 12 200
46 13 228
46 14 252
46 15 224
46 16 196
46 17 167
46 18 138
46 19 166
46 20 194
46 21 217
46 22 189
46 23 161
46 24 132
46 25 103
46 26 131
46 27 159
46 28 182
46 29 154
46 30 126
46 31 97
46 32 68
46 33 96
46 34 124
46 35 148
46 36 120
46 37 92
46 38 63
46 39 34
46 40 62
46 41 90
46 42 114
46 43 86
46 44 58
46 45 29
46 46 0
46 47 28
46 48 56
47 0 348
47 1 320
47 2 292
47 3 263
47 4 234
47 5 206
47 6 234
47 7 314
47 8 286
47 9 258
47 10 229
47 11 200
47 12 172
47 13 200
47 14 280
47 15 252
47 16 224
47 17 195
47 18 166
47 19 138
47 20 166
47 21 245
47 22 217
47 23 189
47 24 160
47 25 131
47 26 103
47 27 131
47 28 210
47 29 182
47 30 154
47 31 125
47 32 96
47 33 68
47 34 96
47 35 176
47 36 148
47 37 120
47 38 91
47 39 62
47 40 34
47 41 62
47 42 142
47 43 114
47 44 86
47 45 57
47 46 28
47 47 0
47 48 28
48 0 376
48 1 348
48 2 320
48 3 291
48 4 262
48 5 234
48 6 206
48 7 342
48 8 314
48 9 286
48 10 257
48 11 228
48 12 200
48 13 172
48 14 308
48 15 280
48 16 252
48 17 223
48 18 194
48 19 166
48 20 138
48 21 273
48 22 245
48 23 217
48 24 188
48 25 159
48 26 131
48 27 103
48 28 238
48 29 210
48 30 182
48 31 153
48 32 124
48 33 96
48 34 68
48 35 204
48 36 176
48 37 148
48 38 119
48 39 90
48 40 62
48 41 34
48 42 170
48 43 142
48 44 114
48 45 85
48 46 56
48 47 28
48 48 0
